SCIP version 5.0.0 [precision: 8 byte] [memory: block] [mode: optimized] [LP solver: NONE] [GitHash: 3bbd232]
Copyright (C) 2002-2017 Konrad-Zuse-Zentrum fuer Informationstechnik Berlin (ZIB)

External codes: 
  Readline EditLine w  GNU library for command line editing (gnu.org/s/readline)
  CppAD 20160000.1     Algorithmic Differentiation of C++ algorithms developed by B. Bell (www.coin-or.org/CppAD)
  ZLIB 1.2.5           General purpose compression library by J. Gailly and M. Adler (zlib.net)
  GMP 6.1.2            GNU Multiple Precision Arithmetic Library developed by T. Granlund (gmplib.org)

user parameter file <scip.set> not found - using default parameters

read problem <../../Split_data/output/parkin/0/0_sample_parkin.logreg>
============

File name	:	../../Split_data/output/parkin/0/0_sample_parkin.logreg
Problem name 	:	0_sample_parkin
Number of data	:	156
Number of var	:	22
The given data has linear independence

[dim=1] time: 0.00429
[dim=2] time: 0.008014
[dim=3] time: 0.010819
[dim=4] time: 0.013161
[dim=5] time: 0.015758
[dim=6] time: 0.018781
[dim=7] time: 0.023209
[dim=8] Time of forward = 0.025636sec.
AIC: 96.5573
k: 7

[dim=22] time: 0.051033
[dim=21] time: 0.139985
[dim=20] time: 0.267132
[dim=19] time: 0.380595
[dim=18] time: 0.384913
[dim=17] time: 0.703042
[dim=16] time: 0.732496
[dim=15] time: 0.738313
[dim=14] time: 0.741069
[dim=13] time: 0.74323
[dim=12] time: 0.744877
[dim=11] time: 0.747083
[dim=10] time: 0.748797
[dim=9] Time of backward = 0.750371sec.
AIC: 87.3535
k: 10
